284125,246125,134125,160125,316125,482125,446125,228125,162125,056125,180125,238125,098125,184125,274125,374125,454125,490125,502125,554125,566125,608125,658125,654125,626125,574125,496125,442125,378125,318125,264125,186125,132125,132125,176125,212125,262125,344125,442125,532125,580125,658125,678125,714125,722125,714125,710125,728125,786125,806125,846125,840125,772125,812125,842125,850125,864125,786125,752125,840125,840125,742125,716125,676125,642125,600000,588125,142125,168125,222125,330125,396125,482125,568125,330125,336125,414125,412125,480125,496125,540125,556125,558125,694125,734125,802125